50, 6638
345, 60
161, 539
69, 12
621, 108
552, 96
115, 385
69, 231
690, 120
23, 77
690, 120
207, 36
69, 12
345, 60
207, 36
207, 36
207, 36
207, 693
483, 84
230, 770
138, 24
184, 616
690, 120
207, 693
92, 308
207, 693
138, 462
69, 12
552, 96
46, 154
184, 616
276, 48
138, 462
414, 72
345, 60
23, 77
230, 770
276, 48
138, 462
184, 616
621, 108
138, 462
414, 72
69, 231
690, 120
184, 616
207, 693
207, 693
414, 72
23, 77
414, 72
